
Gurobi 9.5.1 (linux64) logging started Tue 16 Aug 2022 09:10:09 PM MST

Set parameter LogFile to value "/home/local/ASUAD/kmajd1/NNRepLayer_v2/demos/walking_example/dynamic_constraint/repair_net/logs/opt_log_multi_28.log"
Gurobi Optimizer version 9.5.1 build v9.5.1rc2 (linux64)
Thread count: 48 physical cores, 96 logical processors, using up to 48 threads
Optimize a model with 15477 rows, 9832 columns and 125781 nonzeros
Model fingerprint: 0xe251cbbd
Model has 135 quadratic objective terms
Variable types: 5512 continuous, 4320 integer (4320 binary)
Coefficient statistics:
  Matrix range     [5e-04, 6e+01]
  Objective range  [2e-02, 3e+00]
  QObjective range [1e-01, 1e-01]
  Bounds range     [1e-04, 3e+02]
  RHS range        [2e-04, 6e+01]

Concurrent MIP optimizer: 3 concurrent instances (16 threads per instance)

Presolve removed 270 rows and 0 columns
Presolve time: 0.13s
Presolved: 15207 rows, 9832 columns, 125511 nonzeros
Presolved model has 135 quadratic objective terms
Variable types: 5512 continuous, 4320 integer (4320 binary)
Root relaxation presolve removed 4320 rows and 4320 columns
Root relaxation presolved: 10887 rows, 5512 columns, 112551 nonzeros
Root relaxation presolved model has 135 quadratic objective terms


Root relaxation: objective 1.704683e+01, 7645 iterations, 0.36 seconds (0.62 work units)

    Nodes    |    Current Node    |     Objective Bounds      |     Work
 Expl Unexpl |  Obj  Depth IntInf | Incumbent    BestBd   Gap | It/Node Time

     0     0      -    -    -              -   17.04683      -     -    0s
     0     0      -    -    -              -   17.04683      -     -    3s
     0     2      -    -    -              -   17.04683      -     -    9s
    31    48      -    -    -              -   17.04683      -     -   10s
  1886  1982      -    -    -              -   17.04683      -     -   15s
  3963  4131      -    -    -              -   17.04683      -     -   20s
  5927  6157      -    -    -              -   17.04683      -     -   25s
  8030  8291      -    -    -              -   17.04683      -     -   30s
  9756 10014      -    -    -              -   17.04683      -     -   36s
 10253 10253      -    -    -              -   17.04683      -     -   42s
 10255 10255      -    -    -       29.56176   17.04683  42.3%     -   61s
 10258 10262      -    -    -       29.56176   17.04683  42.3%     -   78s
 10721 10609      -    -    -       29.56176   17.04683  42.3%     -   80s
 14398 13181      -    -    -       29.56176   17.04683  42.3%     -   85s
 17449 15327      -    -    -       29.56176   17.04683  42.3%     -   90s
 20682 17586      -    -    -       28.24639   17.04683  39.6%     -   96s
 21364 18018      -    -    -       28.24639   17.04683  39.6%     -  102s
 22499 18676      -    -    -       28.24639   17.04683  39.6%     -  108s
 22757 19150      -    -    -       28.24639   17.04683  39.6%     -  113s
 23317 19350      -    -    -       27.81635   17.04683  38.7%     -  119s
 23703 19266      -    -    -       27.29972   17.04683  37.6%     -  160s
 23748 17364      -    -    -       23.13458   17.04683  26.3%     -  195s

Instance 2 was solved

Explored 17326 nodes (1111527 simplex iterations) in 195.39 seconds (385.51 work units)
Thread count was 16 (of 96 available processors)

Solution count 10: 23.1346 23.1617 23.2093 ... 28.2446 

Optimal solution found (tolerance 3.50e-01)
Best objective 2.313457755159e+01, best bound 1.704683149262e+01, gap 26.3145%
